n = 100;
C = 22707;
w = [492,716,227,542,225,652,188,695,834,590,875,68,79,592,143,813,65,64,4,912,7,785,693,245,377,565,656,402,75,356,218,239,884,764,74,501,71,882,282,338,313,904,955,528,133,695,672,136,13,919,406,888,529,125,978,453,292,27,83,141,173,598,122,59,92,44,416,848,598,541,207,344,283,861,931,756,733,598,90,622,60,554,833,450,464,561,497,834,670,384,131,498,134,484,328,974,620,237,564,841];
p = [2470,3590,1145,2720,1135,3270,950,3485,4180,2960,4385,350,405,2970,725,4075,335,330,30,4570,45,3935,3475,1235,1895,2835,3290,2020,385,1790,1100,1205,4430,3830,380,2515,365,4420,1420,1700,1575,4530,4785,2650,675,3485,3370,690,75,4605,2040,4450,2655,635,4900,2275,1470,145,425,715,875,3000,620,305,470,230,2090,4250,3000,2715,1045,1730,1425,4315,4665,3790,3675,3000,460,3120,310,2780,4175,2260,2330,2815,2495,4180,3360,1930,665,2500,680,2430,1650,4880,3110,1195,2830,4215];
